DIMACS2
80 203 196 294 315 286 70 154 24 243 6 272 245 164 82 214 280 218 134 225 60 295 241 141 247 194 66 132 69 18 72 192 112 5 47 283 87 129 98 186 23 246 255 2 277 224 156 67 174 111 48 71 83 312 31 159 26 215 206 113 238 120 302 258 77 121 37 169 282 16 235 181 29 281 296 185 226 59 40 101 150
p edge 320 1339
e 0 122 1.0
e 1 40 36.0
e 2 302 8.0
e 2 272 49.0
e 2 179 41.0
e 2 57 23.0
e 2 30 17.0
e 2 256 15.0
e 2 1 18.0
e 2 175 15.0
e 2 100 29.0
e 2 276 23.0
e 2 129 12.0
e 2 231 11.0
e 2 192 38.0
e 2 166 14.0
e 2 146 12.0
e 2 91 39.0
e 3 133 1.0
e 3 0 2.0
e 4 92 1.0
e 4 3 1.0
e 5 253 24.0
e 5 172 36.0
e 5 281 37.0
e 5 269 17.0
e 5 111 15.0
e 5 142 11.0
e 5 147 2.0
e 5 41 30.0
e 5 294 31.0
e 5 299 3.0
e 5 107 39.0
e 5 113 45.0
e 5 279 8.0
e 5 148 29.0
e 5 220 17.0
e 5 117 27.0
e 6 40 18.0
e 6 46 31.0
e 6 287 34.0
e 6 150 2.0
e 6 140 44.0
e 6 303 41.0
e 6 312 42.0
e 6 136 3.0
e 6 161 40.0
e 6 269 22.0
e 6 143 40.0
e 6 307 46.0
e 6 43 41.0
e 6 23 33.0
e 6 207 8.0
e 6 270 46.0
e 6 49 31.0
e 7 288 2.0
e 8 193 1.0
e 8 89 3.0
e 9 89 3.0
e 10 144 2.0
e 10 4 1.0
e 11 65 1.0
e 11 236 1.0
e 12 219 1.0
e 13 284 2.0
e 14 143 1.0
e 15 127 1.0
e 16 70 14.0
e 16 166 24.0
e 16 257 18.0
e 16 114 18.0
e 16 195 30.0
e 16 80 38.0
e 16 13 38.0
e 16 161 11.0
e 16 121 41.0
e 16 283 27.0
e 16 43 12.0
e 16 26 19.0
e 16 130 13.0
e 16 131 20.0
e 16 23 20.0
e 17 251 1.0
e 18 225 3.0
e 18 178 12.0
e 18 43 7.0
e 18 226 9.0
e 18 248 32.0
e 18 21 23.0
e 18 122 40.0
e 18 172 14.0
e 18 89 41.0
e 18 113 33.0
e 18 52 17.0
e 18 5 43.0
e 18 58 31.0
e 18 84 1.0
e 18 71 14.0
e 18 104 29.0
e 19 259 1.0
e 19 86 1.0
e 20 35 1.0
e 21 121 48.0
e 22 5 25.0
e 23 296 7.0
e 23 312 41.0
e 23 236 43.0
e 23 190 14.0
e 23 143 12.0
e 23 66 37.0
e 23 84 27.0
e 23 1 23.0
e 23 261 37.0
e 23 162 45.0
e 23 76 41.0
e 23 168 6.0
e 23 194 24.0
e 23 87 8.0
e 23 107 20.0
e 24 294 22.0
e 24 15 8.0
e 24 260 22.0
e 24 81 40.0
e 24 178 14.0
e 24 197 33.0
e 24 295 33.0
e 24 223 32.0
e 24 130 31.0
e 24 80 3.0
e 24 268 29.0
e 24 115 17.0
e 24 289 24.0
e 24 170 26.0
e 24 75 20.0
e 24 89 19.0
e 25 118 2.0
e 26 168 15.0
e 26 17 35.0
e 26 316 37.0
e 26 93 3.0
e 26 58 35.0
e 26 15 46.0
e 26 143 4.0
e 26 301 40.0
e 26 19 33.0
e 26 45 4.0
e 26 238 32.0
e 26 47 39.0
e 27 228 1.0
e 28 139 1.0
e 29 212 17.0
e 29 30 6.0
e 29 94 26.0
e 29 232 10.0
e 29 92 14.0
e 29 197 7.0
e 29 114 22.0
e 29 272 44.0
e 29 239 45.0
e 29 298 21.0
e 29 13 40.0
e 29 86 26.0
e 29 99 1.0
e 29 23 21.0
e 29 121 19.0
e 29 289 48.0
e 30 220 1.0
e 31 24 43.0
e 31 124 8.0
e 31 73 14.0
e 31 266 25.0
e 31 235 5.0
e 31 141 12.0
e 31 152 15.0
e 31 289 34.0
e 31 181 23.0
e 31 176 49.0
e 31 196 11.0
e 31 18 28.0
e 31 296 21.0
e 31 128 24.0
e 31 304 9.0
e 31 301 9.0
e 32 28 2.0
e 33 181 40.0
e 33 245 27.0
e 34 212 1.0
e 35 270 1.0
e 36 230 1.0
e 37 25 11.0
e 37 233 24.0
e 37 53 40.0
e 37 27 41.0
e 37 92 39.0
e 37 59 48.0
e 37 97 36.0
e 37 220 16.0
e 37 57 8.0
e 37 250 27.0
e 37 312 21.0
e 37 77 35.0
e 37 222 24.0
e 37 42 12.0
e 37 66 46.0
e 37 79 13.0
e 38 107 1.0
e 39 238 4.0
e 40 179 12.0
e 40 41 4.0
e 40 59 43.0
e 40 302 48.0
e 40 54 18.0
e 40 209 10.0
e 40 180 20.0
e 40 144 5.0
e 40 206 32.0
e 40 91 24.0
e 40 104 11.0
e 40 292 43.0
e 40 220 12.0
e 40 242 32.0
e 41 165 1.0
e 42 1 1.0
e 43 26 21.0
e 44 20 1.0
e 45 46 1.0
e 46 170 1.0
e 47 62 17.0
e 47 129 13.0
e 47 21 40.0
e 47 313 7.0
e 47 237 7.0
e 47 206 9.0
e 47 102 37.0
e 47 170 18.0
e 47 2 28.0
e 47 98 34.0
e 47 154 19.0
e 47 308 26.0
e 47 145 26.0
e 47 292 7.0
e 47 124 9.0
e 47 306 11.0
e 48 181 10.0
e 48 310 48.0
e 48 249 3.0
e 48 183 24.0
e 48 167 34.0
e 48 302 26.0
e 48 8 10.0
e 48 107 27.0
e 48 199 12.0
e 48 1 30.0
e 48 194 46.0
e 48 205 25.0
e 48 292 14.0
e 48 130 20.0
e 48 299 1.0
e 48 280 13.0
e 48 185 9.0
e 49 116 2.0
e 50 308 1.0
e 51 54 2.0
e 52 151 1.0
e 53 134 41.0
e 54 26 40.0
e 55 13 2.0
e 56 137 1.0
e 57 217 1.0
e 58 230 1.0
e 59 79 34.0
e 59 83 43.0
e 59 245 48.0
e 59 209 42.0
e 59 252 6.0
e 59 62 38.0
e 59 235 41.0
e 59 291 25.0
e 59 299 41.0
e 59 120 40.0
e 59 90 32.0
e 59 75 3.0
e 59 241 35.0
e 59 287 26.0
e 60 87 21.0
e 60 36 4.0
e 60 200 10.0
e 60 302 12.0
e 60 80 27.0
e 60 72 16.0
e 60 119 47.0
e 60 39 39.0
e 60 194 37.0
e 60 16 7.0
e 60 22 31.0
e 60 9 20.0
e 60 218 45.0
e 60 282 25.0
e 60 314 8.0
e 60 309 40.0
e 60 108 3.0
e 61 132 45.0
e 62 299 1.0
e 63 171 1.0
e 64 35 1.0
e 65 98 24.0
e 66 312 19.0
e 66 175 34.0
e 66 258 2.0
e 66 293 3.0
e 66 14 15.0
e 66 305 9.0
e 66 101 19.0
e 66 128 49.0
e 66 76 40.0
e 66 211 19.0
e 66 302 25.0
e 66 29 8.0
e 66 157 26.0
e 66 296 26.0
e 66 132 44.0
e 67 159 2.0
e 67 136 43.0
e 67 118 25.0
e 67 81 5.0
e 67 149 2.0
e 67 297 4.0
e 67 101 42.0
e 67 239 40.0
e 67 9 31.0
e 67 258 31.0
e 67 245 12.0
e 67 119 45.0
e 67 309 37.0
e 67 221 6.0
e 67 7 10.0
e 67 294 16.0
e 67 85 3.0
e 68 27 2.0
e 68 118 1.0
e 69 12 20.0
e 69 58 7.0
e 69 214 25.0
e 69 161 7.0
e 69 53 20.0
e 69 216 38.0
e 69 224 24.0
e 69 210 3.0
e 69 109 8.0
e 69 302 23.0
e 69 173 14.0
e 69 165 48.0
e 69 310 21.0
e 69 86 6.0
e 69 315 48.0
e 70 118 40.0
e 70 302 8.0
e 70 198 46.0
e 70 55 8.0
e 70 181 19.0
e 70 231 42.0
e 70 34 24.0
e 70 237 16.0
e 70 8 42.0
e 70 94 39.0
e 70 67 33.0
e 70 131 11.0
e 70 120 44.0
e 70 182 12.0
e 70 109 38.0
e 70 194 6.0
e 71 57 28.0
e 71 142 37.0
e 71 277 18.0
e 71 88 39.0
e 71 54 23.0
e 71 215 36.0
e 71 221 35.0
e 71 34 14.0
e 71 98 8.0
e 71 181 14.0
e 71 64 23.0
e 71 268 15.0
e 71 302 47.0
e 71 103 47.0
e 71 203 7.0
e 71 216 35.0
e 72 285 48.0
e 72 174 46.0
e 72 41 30.0
e 72 65 10.0
e 72 206 1.0
e 72 246 15.0
e 72 33 31.0
e 72 99 13.0
e 72 71 31.0
e 72 76 49.0
e 72 63 37.0
e 72 204 31.0
e 72 10 16.0
e 72 42 45.0
e 73 301 1.0
e 74 234 3.0
e 74 36 1.0
e 75 35 1.0
e 76 114 3.0
e 77 157 1.0
e 77 167 5.0
e 77 233 7.0
e 77 89 41.0
e 77 172 31.0
e 77 85 1.0
e 77 66 17.0
e 77 161 9.0
e 77 204 18.0
e 77 110 9.0
e 77 22 5.0
e 77 317 20.0
e 77 24 28.0
e 77 23 29.0
e 77 265 43.0
e 77 140 4.0
e 78 204 1.0
e 79 20 1.0
e 80 113 29.0
e 81 166 1.0
e 82 261 47.0
e 82 134 12.0
e 82 210 8.0
e 82 294 40.0
e 82 61 2.0
e 82 130 42.0
e 82 307 24.0
e 82 164 8.0
e 82 37 12.0
e 82 221 15.0
e 82 282 1.0
e 82 236 46.0
e 82 78 40.0
e 82 96 47.0
e 82 165 32.0
e 82 189 13.0
e 82 123 27.0
e 83 178 15.0
e 83 120 11.0
e 83 194 21.0
e 83 167 30.0
e 83 108 9.0
e 83 55 48.0
e 83 56 41.0
e 83 222 12.0
e 83 279 20.0
e 83 103 21.0
e 83 185 37.0
e 83 54 12.0
e 83 294 4.0
e 83 141 45.0
e 83 201 12.0
e 84 42 1.0
e 85 203 26.0
e 86 240 1.0
e 87 97 30.0
e 87 51 48.0
e 87 21 43.0
e 87 95 39.0
e 87 134 32.0
e 87 226 44.0
e 87 22 26.0
e 87 232 43.0
e 87 228 7.0
e 87 302 45.0
e 87 56 11.0
e 87 315 1.0
e 87 253 27.0
e 87 309 13.0
e 87 238 42.0
e 88 236 2.0
e 89 285 2.0
e 90 36 2.0
e 91 3 1.0
e 92 15 1.0
e 93 269 1.0
e 94 174 1.0
e 95 316 1.0
e 96 271 1.0
e 97 45 1.0
e 98 117 14.0
e 98 110 33.0
e 98 297 24.0
e 98 177 37.0
e 98 88 1.0
e 98 202 34.0
e 98 10 44.0
e 98 168 34.0
e 98 275 16.0
e 98 237 45.0
e 98 259 48.0
e 98 262 41.0
e 98 179 40.0
e 99 203 41.0
e 100 276 2.0
e 101 219 9.0
e 101 102 3.0
e 101 106 5.0
e 101 30 7.0
e 101 120 10.0
e 101 296 46.0
e 101 152 15.0
e 101 286 16.0
e 101 23 16.0
e 101 160 49.0
e 101 307 37.0
e 101 87 49.0
e 101 11 21.0
e 101 121 32.0
e 101 153 29.0
e 102 212 1.0
e 103 174 15.0
e 104 72 14.0
e 104 82 12.0
e 104 6 25.0
e 105 113 10.0
e 105 14 3.0
e 106 75 1.0
e 107 196 14.0
e 108 69 9.0
e 109 260 1.0
e 110 122 2.0
e 111 144 44.0
e 111 196 5.0
e 111 284 10.0
e 111 4 33.0
e 111 14 39.0
e 111 293 31.0
e 111 172 6.0
e 111 64 47.0
e 111 274 22.0
e 111 271 11.0
e 111 167 19.0
e 111 316 3.0
e 111 241 15.0
e 111 272 8.0
e 111 186 26.0
e 112 193 49.0
e 112 307 37.0
e 112 248 22.0
e 112 306 38.0
e 112 272 24.0
e 112 282 17.0
e 112 5 23.0
e 112 136 22.0
e 112 57 25.0
e 112 259 29.0
e 112 58 11.0
e 112 217 1.0
e 112 71 40.0
e 112 241 20.0
e 112 70 15.0
e 112 262 29.0
e 112 315 19.0
e 113 231 19.0
e 113 207 37.0
e 113 40 26.0
e 113 311 16.0
e 113 218 46.0
e 113 260 5.0
e 113 199 19.0
e 113 295 4.0
e 113 24 3.0
e 113 115 24.0
e 113 82 23.0
e 113 131 45.0
e 113 254 23.0
e 114 150 15.0
e 115 135 1.0
e 116 20 1.0
e 117 252 2.0
e 118 125 2.0
e 119 250 1.0
e 120 251 8.0
e 120 198 1.0
e 120 192 29.0
e 120 132 19.0
e 120 64 28.0
e 120 226 49.0
e 120 93 10.0
e 120 16 14.0
e 120 134 4.0
e 120 272 7.0
e 120 304 38.0
e 120 181 21.0
e 120 60 19.0
e 121 51 23.0
e 121 277 22.0
e 121 124 17.0
e 121 102 24.0
e 121 87 35.0
e 121 286 11.0
e 121 226 13.0
e 121 162 19.0
e 121 215 49.0
e 121 63 37.0
e 121 175 39.0
e 121 318 29.0
e 121 191 37.0
e 122 288 1.0
e 123 284 2.0
e 124 157 1.0
e 125 271 1.0
e 126 127 1.0
e 127 176 1.0
e 128 115 1.0
e 129 183 13.0
e 129 110 26.0
e 129 73 45.0
e 129 59 44.0
e 129 108 21.0
e 129 153 35.0
e 129 72 7.0
e 129 190 22.0
e 129 271 17.0
e 129 7 10.0
e 129 96 45.0
e 129 140 30.0
e 129 60 4.0
e 129 267 41.0
e 129 306 3.0
e 130 284 2.0
e 131 38 1.0
e 132 86 9.0
e 132 99 6.0
e 132 211 22.0
e 132 309 12.0
e 132 253 12.0
e 132 72 21.0
e 132 7 5.0
e 132 24 6.0
e 132 82 29.0
e 132 28 6.0
e 132 137 4.0
e 132 63 19.0
e 132 154 43.0
e 133 55 2.0
e 134 116 31.0
e 134 172 35.0
e 134 117 6.0
e 134 262 21.0
e 134 28 31.0
e 134 123 2.0
e 134 142 26.0
e 134 163 38.0
e 134 218 14.0
e 134 169 10.0
e 134 294 20.0
e 134 138 18.0
e 134 83 22.0
e 135 9 1.0
e 136 252 1.0
e 137 171 1.0
e 138 155 2.0
e 139 200 1.0
e 140 203 44.0
e 141 313 28.0
e 141 32 38.0
e 141 90 26.0
e 141 202 44.0
e 141 234 31.0
e 141 268 2.0
e 141 25 4.0
e 141 302 37.0
e 141 223 33.0
e 141 65 25.0
e 141 74 1.0
e 141 145 10.0
e 141 146 38.0
e 141 228 42.0
e 141 87 34.0
e 142 115 1.0
e 143 16 11.0
e 144 305 1.0
e 145 193 3.0
e 146 176 2.0
e 147 160 1.0
e 148 69 37.0
e 148 169 26.0
e 148 291 8.0
e 149 132 36.0
e 150 221 23.0
e 150 120 38.0
e 150 188 8.0
e 150 155 30.0
e 150 247 26.0
e 150 116 8.0
e 150 195 22.0
e 150 265 8.0
e 150 93 33.0
e 150 216 22.0
e 150 173 44.0
e 150 315 45.0
e 150 94 25.0
e 150 132 46.0
e 150 138 16.0
e 151 171 1.0
e 152 21 2.0
e 153 90 1.0
e 154 163 25.0
e 154 120 19.0
e 154 318 10.0
e 154 38 31.0
e 154 231 43.0
e 154 213 21.0
e 154 5 20.0
e 154 94 28.0
e 154 174 25.0
e 154 304 25.0
e 154 214 6.0
e 154 164 49.0
e 154 108 14.0
e 154 246 37.0
e 154 273 38.0
e 155 267 1.0
e 156 272 22.0
e 156 105 6.0
e 156 67 20.0
e 156 95 37.0
e 156 2 28.0
e 156 145 18.0
e 156 146 9.0
e 156 314 1.0
e 156 45 7.0
e 156 265 16.0
e 156 310 18.0
e 156 30 47.0
e 156 263 15.0
e 156 311 13.0
e 156 180 23.0
e 156 218 8.0
e 156 169 48.0
e 157 290 1.0
e 158 190 1.0
e 159 308 25.0
e 159 169 46.0
e 159 104 15.0
e 159 17 46.0
e 159 293 32.0
e 159 253 32.0
e 159 226 46.0
e 159 191 29.0
e 159 2 40.0
e 159 248 6.0
e 159 278 33.0
e 159 105 24.0
e 159 196 34.0
e 159 11 1.0
e 159 138 35.0
e 160 111 30.0
e 161 39 1.0
e 162 16 38.0
e 163 126 1.0
e 164 166 35.0
e 164 61 13.0
e 164 187 18.0
e 164 245 45.0
e 164 126 20.0
e 164 294 16.0
e 164 282 41.0
e 164 145 33.0
e 164 77 21.0
e 164 59 1.0
e 164 95 40.0
e 164 17 23.0
e 164 263 43.0
e 164 312 22.0
e 164 305 45.0
e 165 158 1.0
e 166 270 1.0
e 167 315 30.0
e 168 218 12.0
e 169 133 13.0
e 169 229 29.0
e 169 267 18.0
e 169 160 43.0
e 169 202 23.0
e 169 77 13.0
e 169 26 14.0
e 169 37 46.0
e 169 185 48.0
e 169 317 2.0
e 170 261 1.0
e 171 290 1.0
e 172 245 40.0
e 173 31 48.0
e 174 258 32.0
e 174 281 41.0
e 174 285 16.0
e 174 191 20.0
e 174 265 48.0
e 174 67 11.0
e 174 263 4.0
e 174 125 18.0
e 174 180 18.0
e 174 294 16.0
e 174 25 46.0
e 174 273 47.0
e 175 146 2.0
e 176 298 2.0
e 177 300 1.0
e 178 300 2.0
e 179 37 25.0
e 180 250 2.0
e 181 317 16.0
e 181 264 47.0
e 181 59 36.0
e 181 232 21.0
e 181 127 24.0
e 181 147 17.0
e 181 121 24.0
e 181 6 26.0
e 181 39 30.0
e 181 185 33.0
e 182 218 22.0
e 183 12 1.0
e 184 209 2.0
e 185 240 38.0
e 185 242 34.0
e 185 164 16.0
e 185 158 3.0
e 185 304 13.0
e 185 74 14.0
e 185 206 4.0
e 185 310 49.0
e 185 65 40.0
e 185 51 42.0
e 185 245 20.0
e 185 231 18.0
e 186 155 48.0
e 186 198 17.0
e 186 134 18.0
e 186 251 2.0
e 186 273 13.0
e 186 282 19.0
e 186 6 2.0
e 186 312 20.0
e 186 101 37.0
e 186 96 12.0
e 186 226 28.0
e 186 235 23.0
e 186 302 28.0
e 186 147 3.0
e 186 285 47.0
e 186 98 4.0
e 187 98 34.0
e 188 240 1.0
e 189 2 3.0
e 190 177 1.0
e 191 256 1.0
e 192 194 13.0
e 192 132 31.0
e 192 148 17.0
e 192 210 38.0
e 192 79 46.0
e 192 283 36.0
e 192 286 49.0
e 192 242 43.0
e 192 187 19.0
e 192 156 35.0
e 192 18 14.0
e 192 257 13.0
e 192 158 21.0
e 192 26 3.0
e 192 72 33.0
e 193 22 1.0
e 194 259 30.0
e 194 210 17.0
e 194 61 8.0
e 194 216 19.0
e 194 180 2.0
e 194 196 1.0
e 194 123 30.0
e 194 148 10.0
e 194 198 2.0
e 194 134 41.0
e 194 199 1.0
e 195 100 2.0
e 196 85 27.0
e 196 26 18.0
e 196 60 9.0
e 196 132 16.0
e 196 125 23.0
e 196 117 13.0
e 196 66 37.0
e 196 147 17.0
e 196 290 40.0
e 196 286 5.0
e 196 226 47.0
e 197 212 1.0
e 198 155 5.0
e 199 197 2.0
e 200 61 1.0
e 201 249 2.0
e 202 137 1.0
e 203 95 3.0
e 203 36 43.0
e 203 201 45.0
e 203 264 31.0
e 203 62 46.0
e 203 222 45.0
e 203 291 23.0
e 203 208 19.0
e 203 163 1.0
e 203 134 41.0
e 203 8 8.0
e 203 104 3.0
e 204 148 4.0
e 205 311 1.0
e 206 184 40.0
e 206 37 29.0
e 206 27 49.0
e 206 279 13.0
e 206 181 12.0
e 206 117 44.0
e 206 159 32.0
e 206 281 42.0
e 206 174 27.0
e 206 302 40.0
e 206 29 23.0
e 206 198 41.0
e 206 266 49.0
e 207 114 2.0
e 208 178 1.0
e 209 84 1.0
e 210 195 1.0
e 211 300 1.0
e 212 26 8.0
e 213 175 2.0
e 214 100 8.0
e 214 33 12.0
e 214 239 35.0
e 214 294 22.0
e 214 62 28.0
e 214 207 20.0
e 214 38 32.0
e 214 218 28.0
e 214 31 27.0
e 214 315 31.0
e 214 266 28.0
e 214 237 22.0
e 214 213 40.0
e 214 19 19.0
e 215 295 34.0
e 215 29 15.0
e 215 11 25.0
e 215 222 12.0
e 215 73 40.0
e 215 213 30.0
e 215 254 48.0
e 215 266 17.0
e 215 223 19.0
e 215 255 37.0
e 215 83 13.0
e 215 177 11.0
e 215 31 37.0
e 215 123 4.0
e 215 312 19.0
e 216 174 48.0
e 217 81 1.0
e 218 52 44.0
e 218 215 1.0
e 218 222 40.0
e 218 312 34.0
e 218 31 41.0
e 218 32 19.0
e 218 200 10.0
e 218 223 11.0
e 218 140 10.0
e 218 12 48.0
e 219 80 2.0
e 220 241 36.0
e 221 46 1.0
e 222 245 31.0
e 223 29 16.0
e 224 55 45.0
e 224 238 21.0
e 224 135 31.0
e 224 186 18.0
e 224 66 41.0
e 224 312 3.0
e 224 12 19.0
e 224 192 2.0
e 224 169 1.0
e 224 16 31.0
e 224 177 19.0
e 224 254 39.0
e 224 83 33.0
e 224 68 23.0
e 224 194 15.0
e 225 240 41.0
e 225 68 36.0
e 225 231 13.0
e 225 69 2.0
e 225 33 31.0
e 225 238 19.0
e 225 154 11.0
e 225 150 40.0
e 225 272 1.0
e 225 149 49.0
e 225 74 1.0
e 225 255 36.0
e 225 296 31.0
e 225 46 46.0
e 225 98 11.0
e 225 274 47.0
e 226 202 39.0
e 226 174 18.0
e 226 139 17.0
e 226 68 17.0
e 226 218 2.0
e 226 105 46.0
e 226 151 20.0
e 226 181 28.0
e 226 243 39.0
e 226 182 36.0
e 227 181 16.0
e 228 201 1.0
e 229 159 22.0
e 230 103 2.0
e 231 278 1.0
e 232 249 1.0
e 233 107 3.0
e 234 241 24.0
e 235 162 28.0
e 235 286 32.0
e 235 141 46.0
e 235 128 25.0
e 235 272 30.0
e 235 69 16.0
e 235 247 30.0
e 235 312 33.0
e 235 129 39.0
e 235 288 43.0
e 235 77 2.0
e 235 255 19.0
e 235 70 38.0
e 235 205 28.0
e 236 133 1.0
e 237 232 1.0
e 238 53 22.0
e 238 186 9.0
e 238 159 36.0
e 238 18 41.0
e 238 138 23.0
e 238 69 4.0
e 238 274 49.0
e 238 272 14.0
e 238 108 32.0
e 238 129 43.0
e 238 70 35.0
e 239 139 1.0
e 240 287 1.0
e 241 109 6.0
e 241 278 47.0
e 241 78 30.0
e 241 246 20.0
e 241 294 22.0
e 241 19 6.0
e 241 34 2.0
e 241 174 43.0
e 241 205 7.0
e 241 71 13.0
e 241 113 23.0
e 242 263 4.0
e 243 305 27.0
e 243 224 5.0
e 243 318 28.0
e 243 255 32.0
e 243 39 33.0
e 243 316 45.0
e 243 227 48.0
e 243 312 13.0
e 243 148 44.0
e 243 181 4.0
e 243 40 5.0
e 243 47 28.0
e 243 44 45.0
e 243 98 38.0
e 243 48 1.0
e 244 7 3.0
e 245 52 3.0
e 245 47 20.0
e 245 233 35.0
e 245 141 17.0
e 245 282 41.0
e 245 313 24.0
e 245 79 15.0
e 245 150 2.0
e 245 140 5.0
e 245 214 9.0
e 246 26 6.0
e 246 113 46.0
e 246 149 16.0
e 246 40 13.0
e 246 49 27.0
e 246 229 27.0
e 246 141 25.0
e 246 78 49.0
e 246 203 44.0
e 246 99 12.0
e 246 234 46.0
e 246 248 14.0
e 246 280 15.0
e 246 44 15.0
e 247 169 24.0
e 247 47 31.0
e 247 255 39.0
e 247 110 14.0
e 247 99 38.0
e 247 283 38.0
e 247 120 2.0
e 247 48 36.0
e 247 49 35.0
e 247 124 47.0
e 247 281 33.0
e 247 101 6.0
e 247 121 23.0
e 247 241 46.0
e 247 319 8.0
e 248 264 2.0
e 249 40 12.0
e 250 268 2.0
e 251 272 11.0
e 252 0 2.0
e 253 50 2.0
e 254 43 1.0
e 255 81 4.0
e 255 183 44.0
e 255 151 11.0
e 255 101 41.0
e 255 104 7.0
e 255 106 40.0
e 255 128 38.0
e 255 238 14.0
e 255 272 12.0
e 255 189 37.0
e 255 111 41.0
e 255 129 22.0
e 256 64 1.0
e 257 0 1.0
e 258 119 14.0
e 258 302 1.0
e 258 214 30.0
e 258 48 9.0
e 258 106 7.0
e 258 149 45.0
e 258 160 2.0
e 258 169 8.0
e 258 257 18.0
e 258 206 43.0
e 258 153 48.0
e 258 272 21.0
e 258 215 12.0
e 258 49 23.0
e 259 97 1.0
e 260 227 1.0
e 261 294 15.0
e 262 109 2.0
e 263 243 12.0
e 264 144 2.0
e 265 116 1.0
e 266 133 2.0
e 267 56 1.0
e 268 219 2.0
e 269 97 1.0
e 270 25 1.0
e 271 135 2.0
e 272 0 16.0
e 272 234 6.0
e 272 257 38.0
e 272 294 39.0
e 272 302 34.0
e 273 100 2.0
e 274 217 1.0
e 275 59 18.0
e 276 88 1.0
e 277 264 37.0
e 277 111 7.0
e 277 150 6.0
e 277 206 10.0
e 277 163 13.0
e 277 112 17.0
e 277 113 37.0
e 277 186 14.0
e 277 50 43.0
e 277 169 27.0
e 277 196 27.0
e 277 152 39.0
e 277 159 31.0
e 277 203 16.0
e 277 185 18.0
e 278 191 1.0
e 279 240 1.0
e 280 182 4.0
e 280 255 4.0
e 280 111 21.0
e 280 51 43.0
e 280 275 12.0
e 280 218 31.0
e 280 153 27.0
e 280 154 10.0
e 280 294 3.0
e 280 194 26.0
e 280 238 19.0
e 280 112 22.0
e 280 235 39.0
e 280 224 5.0
e 280 121 43.0
e 281 298 42.0
e 281 255 38.0
e 281 207 27.0
e 281 272 16.0
e 281 154 36.0
e 281 286 41.0
e 281 112 17.0
e 281 156 41.0
e 281 164 35.0
e 281 183 38.0
e 281 294 32.0
e 281 184 9.0
e 281 185 41.0
e 282 214 20.0
e 282 156 49.0
e 282 184 38.0
e 282 185 30.0
e 282 215 42.0
e 282 241 34.0
e 282 187 39.0
e 282 188 40.0
e 282 189 28.0
e 282 192 13.0
e 283 230 24.0
e 283 164 17.0
e 283 184 9.0
e 283 276 43.0
e 283 187 2.0
e 283 188 7.0
e 283 189 22.0
e 283 194 16.0
e 283 196 11.0
e 283 200 30.0
e 283 312 49.0
e 283 203 12.0
e 283 206 34.0
e 284 196 3.0
e 285 27 1.0
e 286 83 22.0
e 286 208 23.0
e 286 214 45.0
e 286 218 2.0
e 286 224 49.0
e 286 225 29.0
e 286 272 36.0
e 286 226 34.0
e 286 227 41.0
e 286 229 24.0
e 286 231 18.0
e 287 28 2.0
e 288 72 33.0
e 289 32 1.0
e 290 57 3.0
e 291 249 1.0
e 292 223 1.0
e 293 297 1.0
e 294 185 6.0
e 294 288 16.0
e 294 192 21.0
e 295 173 24.0
e 295 196 10.0
e 295 225 48.0
e 295 208 4.0
e 295 226 24.0
e 295 227 30.0
e 295 229 28.0
e 295 235 3.0
e 295 238 1.0
e 295 241 8.0
e 295 242 45.0
e 295 243 32.0
e 295 244 21.0
e 295 275 48.0
e 296 241 34.0
e 296 226 18.0
e 296 255 39.0
e 296 235 31.0
e 296 242 12.0
e 296 243 13.0
e 296 244 6.0
e 296 245 41.0
e 296 246 9.0
e 296 247 16.0
e 296 256 32.0
e 296 258 21.0
e 297 230 1.0
e 298 126 1.0
e 299 238 9.0
e 300 269 2.0
e 301 50 1.0
e 302 199 40.0
e 302 225 38.0
e 302 243 6.0
e 303 157 1.0
e 304 119 1.0
e 305 211 1.0
e 306 91 1.0
e 307 103 1.0
e 308 203 40.0
e 309 193 2.0
e 310 73 1.0
e 311 219 2.0
e 312 282 21.0
e 312 244 14.0
e 312 314 39.0
e 312 303 39.0
e 312 245 15.0
e 313 18 45.0
e 314 44 1.0
e 315 169 8.0
e 315 245 27.0
e 315 246 41.0
e 315 247 10.0
e 315 258 8.0
e 315 272 35.0
e 315 275 23.0
e 315 277 20.0
e 315 280 49.0
e 315 281 25.0
e 315 282 13.0
e 316 169 15.0
e 317 283 4.0
e 318 10 1.0
e 319 224 45.0
